Results/Experiment 1 Results/Existing Benchmark/RES_100/i-100-100-12.txt
solutions: 5 nodes: 11  modelTime: 134  solveTime: 23  totalTime: 168  modelSize: 8381  readTime: 11 matchingSize: 50
