Results/Experiment 2 Results/Existing Benchmark/i-100-100-12.lp
clingo version 5.4.0
Reading from tempSRTISolver.lp ...
Solving...
Answer: 1
matched(80,2) matched(37,3) matched(20,4) matched(79,5) matched(63,6) matched(9,7) matched(18,8) matched(7,9) matched(58,10) matched(75,11) matched(90,12) matched(76,13) matched(45,14) matched(56,15) matched(41,16) matched(40,17) matched(8,18) matched(94,19) matched(4,20) matched(1,21) matched(70,22) matched(73,23) matched(93,24) matched(61,25) matched(87,26) matched(69,27) matched(92,28) matched(49,29) matched(46,30) matched(59,31) matched(60,32) matched(50,33) matched(84,34) matched(86,35) matched(100,36) matched(3,37) matched(96,38) matched(57,39) matched(17,40) matched(16,41) matched(51,42) matched(67,43) matched(47,44) matched(14,45) matched(30,46) matched(44,47) matched(83,48) matched(29,49) matched(33,50) matched(42,51) matched(55,52) matched(82,53) matched(95,54) matched(52,55) matched(15,56) matched(39,57) matched(10,58) matched(31,59) matched(32,60) matched(25,61) matched(98,62) matched(6,63) matched(66,64) matched(97,65) matched(64,66) matched(43,67) matched(81,68) matched(27,69) matched(22,70) matched(85,71) matched(77,72) matched(23,73) matched(78,74) matched(11,75) matched(13,76) matched(72,77) matched(74,78) matched(5,79) matched(2,80) matched(68,81) matched(53,82) matched(48,83) matched(34,84) matched(71,85) matched(35,86) matched(26,87) matched(89,88) matched(88,89) matched(12,90) matched(99,91) matched(28,92) matched(24,93) matched(19,94) matched(54,95) matched(38,96) matched(65,97) matched(62,98) matched(91,99) matched(36,100) matched(21,1)
Optimization: 951
Answer: 2
matched(80,2) matched(37,3) matched(20,4) matched(79,5) matched(63,6) matched(9,7) matched(18,8) matched(7,9) matched(58,10) matched(75,11) matched(90,12) matched(76,13) matched(45,14) matched(56,15) matched(41,16) matched(40,17) matched(8,18) matched(31,19) matched(4,20) matched(1,21) matched(70,22) matched(73,23) matched(93,24) matched(94,25) matched(87,26) matched(69,27) matched(92,28) matched(49,29) matched(60,30) matched(19,31) matched(59,32) matched(46,33) matched(84,34) matched(86,35) matched(100,36) matched(3,37) matched(96,38) matched(57,39) matched(17,40) matched(16,41) matched(51,42) matched(67,43) matched(61,44) matched(14,45) matched(33,46) matched(83,47) matched(50,48) matched(29,49) matched(48,50) matched(42,51) matched(55,52) matched(82,53) matched(95,54) matched(52,55) matched(15,56) matched(39,57) matched(10,58) matched(32,59) matched(30,60) matched(44,61) matched(98,62) matched(6,63) matched(66,64) matched(97,65) matched(64,66) matched(43,67) matched(81,68) matched(27,69) matched(22,70) matched(85,71) matched(77,72) matched(23,73) matched(78,74) matched(11,75) matched(13,76) matched(72,77) matched(74,78) matched(5,79) matched(2,80) matched(68,81) matched(53,82) matched(47,83) matched(34,84) matched(71,85) matched(35,86) matched(26,87) matched(89,88) matched(88,89) matched(12,90) matched(99,91) matched(28,92) matched(24,93) matched(25,94) matched(54,95) matched(38,96) matched(65,97) matched(62,98) matched(91,99) matched(36,100) matched(21,1)
Optimization: 905
OPTIMUM FOUND

Models       : 2
  Optimum    : yes
Optimization : 905
Calls        : 1
Time         : 93.854s (Solving: 10.13s 1st Model: 4.21s Unsat: 4.29s)
CPU Time     : 93.837s
